30 87 
21 20 
84 6 
91 90 
49 30 
9 41 
9 88 
44 12 
57 33 
39 39 
38 89 
23 82 
58 93 
64 73 
71 58 
12 53 
97 33 
73 34 
91 64 
76 92 
46 85 
34 8 
73 30 
20 82 
15 59 
22 5 
0 45 
87 58 
90 3 
84 61 
13 48 
14 11 
33 87 
45 76 
3 21 
68 50 
58 54 
10 84 
37 30 
66 52 
41 40 
58 41 
37 97 
52 28 
53 36 
41 66 
36 56 
29 69 
95 26 
45 99 
